# Solution for model qis_1000_800_695
# Objective value = 2.9965831154438973e+02
x[0] 0
x[1] 0
x[2] 1
x[3] 1
x[4] 0
x[5] 1
x[6] 1
x[7] 0
x[8] 1.2606489632903737e-08
x[9] 9.9999972837290108e-01
x[10] 0
x[11] 1
x[12] 1
x[13] 0
x[14] 1
x[15] 0
x[16] 0
x[17] 0
x[18] 0
x[19] 1
x[20] 1.0000000170788139e+00
x[21] 1
x[22] 0
x[23] -1.5325818248923236e-08
x[24] 0
x[25] 9.9999946007913576e-01
x[26] 0
x[27] 0
x[28] 0
x[29] 1
x[30] 1
x[31] 0
x[32] 0
x[33] 1
x[34] 1
x[35] 1
x[36] 0
x[37] 1
x[38] 1.0000000573943189e+00
x[39] 9.9999972837290108e-01
x[40] 1
x[41] 0
x[42] 1
x[43] 1
x[44] 1
x[45] 0
x[46] 0
x[47] 0
x[48] 1
x[49] 0
x[50] 0
x[51] 1
x[52] 0
x[53] 1
x[54] 0
x[55] 0
x[56] 1
x[57] 0
x[58] 2.7154942097562751e-07
x[59] 0
x[60] 1
x[61] 1.0000001042000839e+00
x[62] 0
x[63] 0
x[64] 0
x[65] 0
x[66] 0
x[67] 0
x[68] 1
x[69] 1
x[70] 0
x[71] 1
x[72] 0
x[73] 0
x[74] 0
x[75] 1
x[76] 0.999999818915267
x[77] 1
x[78] 0
x[79] 1
x[80] 1
x[81] 0
x[82] 1
x[83] 1
x[84] 0
x[85] 1
x[86] 1
x[87] 1
x[88] 1
x[89] 1
x[90] 1
x[91] 1
x[92] 1
x[93] 1
x[94] 1
x[95] 1
x[96] 0
x[97] 1
x[98] 1
x[99] 0
x[100] 1
x[101] 0
x[102] 0
x[103] 0
x[104] 0
x[105] 0
x[106] 9.9999999999999944e-01
x[107] 1
x[108] 1
x[109] 1
x[110] 1.8096547708082776e-07
x[111] 1
x[112] 0
x[113] 1
x[114] 0
x[115] 1
x[116] 0
x[117] 1
x[118] 0
x[119] 0
x[120] 1
x[121] 1
x[122] 0
x[123] 1.2679650636499329e-08
x[124] 1
x[125] 0
x[126] 9.9999998722617633e-01
x[127] 1
x[128] 0
x[129] 0
x[130] 0
x[131] 0
x[132] 1.0000000172798107e+00
x[133] 1
x[134] 0
x[135] 0
x[136] 1
x[137] 0
x[138] 1
x[139] 0
x[140] 0
x[141] 9.9999973170623424e-01
x[142] 0
x[143] 1
x[144] 2.7121030217940030e-07
x[145] 0
x[146] 0
x[147] -2.6030604916016387e-07
x[148] 1
x[149] 0
x[150] 1
x[151] 0
x[152] 0
x[153] 1
x[154] 9.9999946007913587e-01
x[155] 0
x[156] 1
x[157] 0
x[158] 0
x[159] 1
x[160] 0
x[161] 1
x[162] 0
x[163] 0
x[164] 1
x[165] 1.0000002600385303e+00
x[166] 1
x[167] 1
x[168] 0
x[169] 0
x[170] 1
x[171] 1
x[172] 0
x[173] 1
x[174] 1
x[175] 0
x[176] 0
x[177] 1
x[178] 1
x[179] 1
x[180] 1
x[181] 1
x[182] 0
x[183] 1
x[184] 0
x[185] 1
x[186] 0
x[187] 1
x[188] 1
x[189] 0
x[190] 0
x[191] 0
x[192] 0
x[193] 0
x[194] 0
x[195] 1
x[196] 1
x[197] 0
x[198] 0
x[199] 0
x[200] 0
x[201] 0
x[202] 0
x[203] -1.6570515235980376e-08
x[204] 0
x[205] 1
x[206] 1
x[207] 0
x[208] 1
x[209] 9.9999986895833737e-01
x[210] -1.2773823650446802e-08
x[211] 0
x[212] 0
x[213] 1
x[214] 0
x[215] 0
x[216] 1
x[217] 1
x[218] 1
x[219] 0
x[220] 0
x[221] 1
x[222] 1
x[223] 0
x[224] 5.4304914281643557e-07
x[225] 1
x[226] 1
x[227] 1
x[228] 0
x[229] 0
x[230] 0
x[231] 0
x[232] -8.7685815141298723e-09
x[233] 1
x[234] 0
x[235] 1
x[236] 0
x[237] 1
x[238] 0
x[239] 1
x[240] -1.0427951914579062e-07
x[241] 0
x[242] 0
x[243] 1
x[244] 0
x[245] 1
x[246] 0
x[247] 5.8706348326296680e-08
x[248] 0
x[249] 0
x[250] 1
x[251] 0
x[252] 0
x[253] 0
x[254] 0
x[255] 0
x[256] 1
x[257] 0
x[258] 1
x[259] 0
x[260] 1
x[261] 0
x[262] 1
x[263] 0
x[264] 1
x[265] 1
x[266] 2.0815885704783157e-07
x[267] 1
x[268] 1
x[269] 1
x[270] 0
x[271] 0
x[272] 0
x[273] 0
x[274] 1
x[275] 1
x[276] 0
x[277] 0
x[278] 0
x[279] 1
x[280] 0
x[281] 3.1529060746557467e-07
x[282] 0
x[283] 0
x[284] 0
x[285] 0
x[286] 1
x[287] 0
x[288] 0
x[289] 0
x[290] 0
x[291] 1
x[292] 1
x[293] 0
x[294] 1
x[295] 0
x[296] 1
x[297] 1
x[298] 0
x[299] 0
x[300] 1
x[301] 0
x[302] -1.7775139999816888e-07
x[303] 0
x[304] -7.1496568941253520e-08
x[305] 0
x[306] 1
x[307] 1
x[308] 0
x[309] 1
x[310] 1
x[311] 0
x[312] 0
x[313] 0
x[314] 0
x[315] 0
x[316] 1
x[317] 0
x[318] 9.9999982022671507e-01
x[319] 9.9999977174341115e-01
x[320] 0
x[321] 1
x[322] 0
x[323] 0
x[324] 1
x[325] 0
x[326] 1
x[327] 1.0000000745701270e+00
x[328] 1
x[329] 0
x[330] 1
x[331] 1
x[332] 1
x[333] 0
x[334] 0
x[335] 0
x[336] 1
x[337] 0
x[338] -2.9449616967269776e-08
x[339] 1
x[340] 1
x[341] 0
x[342] 0
x[343] 0
x[344] 0
x[345] 0
x[346] 1
x[347] 0
x[348] 0
x[349] 0
x[350] 1
x[351] 1
x[352] 0
x[353] 1
x[354] 1
x[355] 1
x[356] -6.6922690109902773e-08
x[357] 0
x[358] 1
x[359] 1
x[360] 1
x[361] 0
x[362] 0
x[363] 0
x[364] 1.2687305846453244e-08
x[365] 1
x[366] 1
x[367] 1.0421248241646540e-07
x[368] 0
x[369] 1
x[370] 0
x[371] 0
x[372] 0
x[373] 0
x[374] 0
x[375] 1
x[376] 0
x[377] 2.7116453465719347e-07
x[378] 0
x[379] 0
x[380] 1
x[381] 0
x[382] 0
x[383] 1
x[384] 1
x[385] 0
x[386] 1
x[387] 1
x[388] 9.9999946494018543e-01
x[389] 2.3149132874617265e-07
x[390] 0
x[391] 0
x[392] 0
x[393] 0
x[394] 0
x[395] 1
x[396] 0
x[397] 0
x[398] 0
x[399] 1
x[400] 1
x[401] 0
x[402] 1
x[403] 1
x[404] 0
x[405] 0
x[406] 1
x[407] 0
x[408] 1
x[409] 1
x[410] 0
x[411] 1
x[412] 0
x[413] 1
x[414] 1
x[415] 1
x[416] 0
x[417] 1
x[418] 2.7152574126184791e-07
x[419] 0
x[420] 0
x[421] 0
x[422] 0
x[423] 0
x[424] 1
x[425] 1.0000000170553554e+00
x[426] 1
x[427] 1
x[428] 5.4315036810809221e-07
x[429] 9.9999973170623457e-01
x[430] 2.2293685251242658e-08
x[431] 0
x[432] 0
x[433] 0
x[434] 1
x[435] 0
x[436] 0
x[437] 1
x[438] 9.9999977345644020e-01
x[439] 9.9999979144096152e-01
x[440] 0
x[441] 1
x[442] 1
x[443] 1
x[444] 0
x[445] 1
x[446] 1
x[447] 1
x[448] 1
x[449] 1
x[450] 1
x[451] 0
x[452] 1.8098797457349921e-07
x[453] 1
x[454] 1
x[455] 1
x[456] 0
x[457] 1
x[458] 1
x[459] 1.0000001417828255e+00
x[460] 0
x[461] 5.3721331131494667e-07
x[462] 1
x[463] 1
x[464] 1
x[465] 1
x[466] 1
x[467] 1
x[468] 1
x[469] 0
x[470] 1
x[471] 0
x[472] 0
x[473] 2.3149663855532013e-07
x[474] 1
x[475] 1
x[476] 1
x[477] 1
x[478] 0
x[479] 0
x[480] 1
x[481] 0
x[482] 0
x[483] 0
x[484] 0
x[485] 1
x[486] 0
x[487] 0
x[488] 0
x[489] 1
x[490] 1
x[491] 1
x[492] 1
x[493] 0
x[494] 1
x[495] 0
x[496] 1
x[497] 1
x[498] 0
x[499] 1
x[500] 0
x[501] 0
x[502] 1
x[503] 0
x[504] 1
x[505] 0
x[506] 1
x[507] 1
x[508] 1
x[509] 0
x[510] 1
x[511] 0
x[512] 9.9999999999999978e-01
x[513] 0
x[514] 1
x[515] 0
x[516] 1
x[517] 0
x[518] 0
x[519] 0
x[520] 0
x[521] 1
x[522] 0
x[523] 1
x[524] 1
x[525] 1.0000000747122388e+00
x[526] 1
x[527] 1
x[528] 0
x[529] 1
x[530] 1
x[531] 1
x[532] 1
x[533] 0
x[534] 1
x[535] 1
x[536] 1
x[537] 1
x[538] 0
x[539] 0
x[540] 0
x[541] 0
x[542] 0
x[543] 1
x[544] 1
x[545] 0
x[546] 0
x[547] 1
x[548] 0
x[549] 0
x[550] 1
x[551] 0
x[552] 1
x[553] 1.2504135842790883e-08
x[554] 0
x[555] 1
x[556] 8.4542973275324353e-08
x[557] 1
x[558] 1
x[559] 9.9999973170623435e-01
x[560] 1
x[561] 0
x[562] 0
x[563] 1.0000000198278118e+00
x[564] 0
x[565] 0
x[566] 1
x[567] 1
x[568] 0
x[569] 0
x[570] 1
x[571] 1
x[572] 0
x[573] 0
x[574] 1
x[575] 1
x[576] 0
x[577] 1
x[578] 1
x[579] 1
x[580] 0
x[581] 1
x[582] 0
x[583] 1
x[584] 1
x[585] 0
x[586] 0
x[587] 1
x[588] 1
x[589] 0
x[590] 0
x[591] 1
x[592] 1
x[593] 0
x[594] 0
x[595] 1
x[596] 0
x[597] 9.9999973170623446e-01
x[598] 0
x[599] 0
x[600] 0
x[601] 1
x[602] 0
x[603] 9.9999973170623413e-01
x[604] 0
x[605] 1
x[606] 1
x[607] 1
x[608] 1
x[609] 0
x[610] 1
x[611] 1
x[612] 1
x[613] 0
x[614] 1
x[615] 1
x[616] 0
x[617] 0
x[618] 1
x[619] 0
x[620] 1
x[621] -6.6922690324919863e-08
x[622] 1
x[623] 0
x[624] 1
x[625] 0
x[626] 1
x[627] 1
x[628] -6.0442267418683267e-07
x[629] 1
x[630] 1.3568103516039138e-07
x[631] 1
x[632] 0
x[633] 0
x[634] 1
x[635] 0
x[636] 1
x[637] 0
x[638] 1
x[639] 1
x[640] 0
x[641] 0
x[642] 1
x[643] 1
x[644] 0
x[645] 1
x[646] 1
x[647] 0
x[648] 1
x[649] 0
x[650] 1
x[651] 0
x[652] 0
x[653] 1
x[654] 1.0000001300446728e+00
x[655] 1
x[656] 1
x[657] 1
x[658] 1
x[659] 0
x[660] 0
x[661] 0
x[662] 1
x[663] 1
x[664] 1
x[665] 1
x[666] 1
x[667] 1
x[668] 1.0000000120283363e+00
x[669] 0
x[670] 1
x[671] 0
x[672] 0
x[673] 1
x[674] 0
x[675] 9.9999994450299656e-01
x[676] 1
x[677] 0
x[678] 0
x[679] 1
x[680] 1
x[681] 1
x[682] 2.2537365146064984e-07
x[683] 0
x[684] 1
x[685] 1
x[686] 1
x[687] 0
x[688] 1.00000001269116
x[689] 0
x[690] 0
x[691] 0
x[692] 1
x[693] 0
x[694] 1
x[695] 1
x[696] 1
x[697] 0
x[698] 1
x[699] 0
x[700] 0
x[701] 1
x[702] 1
x[703] 0
x[704] 0
x[705] 0
x[706] 0
x[707] 1
x[708] 2.7145641616110148e-07
x[709] 0
x[710] 0
x[711] 1
x[712] 0
x[713] 1
x[714] 0
x[715] 0
x[716] 0
x[717] 0
x[718] 1
x[719] 0
x[720] 1.0000002600503060e+00
x[721] 1
x[722] 1
x[723] 0
x[724] 1
x[725] 2.7126148984064490e-07
x[726] 0
x[727] 0
x[728] 1
x[729] 0
x[730] 1
x[731] 0
x[732] 0
x[733] 0
x[734] 1
x[735] 1
x[736] 1
x[737] 1
x[738] 1
x[739] 0
x[740] 0
x[741] 1
x[742] 1
x[743] 9.9999999055950961e-01
x[744] 1
x[745] 5.80929495667194e-08
x[746] 0
x[747] 0
x[748] 1
x[749] 0
x[750] 1
x[751] 0
x[752] 1
x[753] 0
x[754] 1.2659649263710987e-08
x[755] 0
x[756] 1
x[757] 0
x[758] 0
x[759] 1
x[760] 1
x[761] 0
x[762] 0
x[763] 0
x[764] 0
x[765] 1
x[766] 0
x[767] 0
x[768] 9.9999999055950983e-01
x[769] 1
x[770] 0
x[771] 0
x[772] 0
x[773] 1
x[774] 1
x[775] 2.7154280890048451e-07
x[776] 0
x[777] 1
x[778] 0
x[779] 0
x[780] 1
x[781] 0
x[782] 0
x[783] 1.0000000095241095e+00
x[784] 0
x[785] 5.4313435479551379e-07
x[786] 0
x[787] 1
x[788] 1
x[789] 1
x[790] 2.7155159101801143e-07
x[791] 1
x[792] 0
x[793] 0
x[794] 9.9999998867894968e-01
x[795] 1
x[796] 1
x[797] 0
x[798] 0
x[799] 0.999999728372901
x[800] 0
x[801] 0
x[802] 0
x[803] 0
x[804] 0
x[805] 0
x[806] 1
x[807] 1
x[808] 9.9999999049734012e-01
x[809] 0
x[810] 0
x[811] 0
x[812] 1
x[813] 0
x[814] 0
x[815] 0
x[816] 0
x[817] 0
x[818] 1
x[819] 1
x[820] 1
x[821] 1
x[822] 0
x[823] 0
x[824] 0
x[825] 0
x[826] 1
x[827] 1
x[828] 0
x[829] 1
x[830] 1
x[831] 1
x[832] 0
x[833] 0
x[834] 0
x[835] 1
x[836] 0
x[837] 1.0000000424191675e+00
x[838] 0
x[839] 0
x[840] 1
x[841] 1
x[842] 1
x[843] 0
x[844] 1
x[845] 0
x[846] 0
x[847] 0
x[848] 1
x[849] 1.2445981557455329e-08
x[850] 2.7128611427942487e-07
x[851] 1.0000000700900047e+00
x[852] 1
x[853] 1
x[854] 1
x[855] 0
x[856] 0
x[857] 0
x[858] 0
x[859] 1
x[860] 0
x[861] 1
x[862] 1
x[863] 9.9999999064217315e-01
x[864] 0
x[865] 1
x[866] 1
x[867] 0
x[868] 0
x[869] 0
x[870] 0
x[871] 2.7154230897664081e-07
x[872] 0
x[873] -7.4829902301524053e-08
x[874] 0
x[875] 1
x[876] 9.9999986751978387e-01
x[877] 0
x[878] 0
x[879] 0
x[880] 0
x[881] 1
x[882] 1
x[883] 1
x[884] 0
x[885] 1
x[886] 0
x[887] 0
x[888] 1
x[889] 1.0000000293606457e+00
x[890] 1
x[891] 1
x[892] 0
x[893] 0
x[894] 1
x[895] 1
x[896] 0
x[897] 1
x[898] 1
x[899] -1.4014369367697658e-08
x[900] 0
x[901] -7.0256023658253240e-08
x[902] 0
x[903] 0
x[904] 0
x[905] 1
x[906] 1
x[907] 0
x[908] 0
x[909] 0
x[910] 2.7154663812448060e-07
x[911] 1
x[912] 0
x[913] 0
x[914] 0
x[915] 1
x[916] 1.0000006076846473e+00
x[917] 0
x[918] -1.4642215163681541e-07
x[919] 0
x[920] 0
x[921] 1
x[922] 1
x[923] -1.3946477336448204e-08
x[924] 0
x[925] 0
x[926] 0
x[927] 0
x[928] 0
x[929] 1
x[930] 0
x[931] 1.2694934331400970e-08
x[932] 1.0000001462964483e+00
x[933] 1
x[934] 0
x[935] 9.9999973170623435e-01
x[936] 0
x[937] 0
x[938] 0
x[939] 0
x[940] 0
x[941] 1
x[942] 1
x[943] 0
x[944] 0
x[945] 1
x[946] 1
x[947] 0
x[948] 1
x[949] 0
x[950] 1
x[951] 0
x[952] 0
x[953] 1
x[954] 0
x[955] 1.00000007007011
x[956] 1
x[957] 9.9999946019897856e-01
x[958] 1
x[959] 1
x[960] 1
x[961] 9.9999998722617622e-01
x[962] 1
x[963] 0
x[964] 0
x[965] 0
x[966] 1
x[967] 0
x[968] 9.9999973179052448e-01
x[969] 1
x[970] 9.9999989912085085e-01
x[971] 1
x[972] 1
x[973] 0
x[974] 1
x[975] 0
x[976] 1
x[977] 1
x[978] 9.9999989646963039e-01
x[979] 1
x[980] 0
x[981] 0
x[982] 1
x[983] 0
x[984] 1
x[985] 1
x[986] 1
x[987] 1
x[988] 1
x[989] 1
x[990] 0
x[991] 1
x[992] 0
x[993] 1
x[994] 0
x[995] 1
x[996] 1
x[997] 1
x[998] 0
x[999] 1
